Route #1: 67 132 10 153 59 86 93 118 182 45 77 33 13 12 73 32 50 96 139 103 141 74 100 81 130 112 120 125 109 149 152 95 129 187 68 160 
Route #2: 104 64 137 198 164 174 26 140 115 18 57 113 131 169 192 84 27 53 56 185 180 37 123 121 124 1 135 88 85 55 111 157 34 176 114 46 
Route #3: 107 35 65 183 3 199 189 47 161 197 44 146 186 83 14 19 9 89 179 
Route #4: 136 196 116 15 155 175 54 147 195 156 79 4 23 11 142 188 28 
Route #5: 144 42 110 6 148 29 2 143 138 126 128 48 145 25 90 193 20 71 127 5 194 190 80 158 101 91 106 159 184 62 36 122 
Route #6: 171 63 99 70 162 94 60 30 173 108 133 16 61 72 24 92 49 117 82 17 7 170 165 58 66 52 105 
Route #7: 178 167 40 39 119 38 166 102 98 76 8 78 22 134 177 191 150 43 69 151 97 31 181 172 75 163 87 168 154 21 51 41 200 
Cost 1763.4
